Problem:    
Rows:       68
Columns:    29 (20 integer, 20 binary)
Non-zeros:  210
Status:     INTEGER OPTIMAL
Objective:  value = 31.863306 (MINimum)

   No.   Row name        Activity     Lower bound   Upper bound
------ ------------    ------------- ------------- -------------
     1 r.5                   1031.86             0               
     2 r.6                  -968.613      -970.009               
     3 r.7                   31.8633             0               
     4 r.8                   31.8633      -983.029               
     5 r.9                   1031.86             0               
     6 r.10                 -968.137      -999.524               
     7 r.11                  31.8633             0               
     8 r.12                  31.8633      -998.642               
     9 r.13                  31.8633             0               
    10 r.14                  31.8633      -968.167               
    11 r.15                  1031.86             0               
    12 r.16                 -968.137      -972.261               
    13 r.17                  1031.86             0               
    14 r.18                 -999.805      -999.805               
    15 r.19                  31.8633             0               
    16 r.20                 -998.595      -998.595               
    17 r.21                        1             1             = 
    18 r.22                        1             1             = 
    19 r.23                        1             1             = 
    20 r.24                        1             1             = 
    21 r.25                        2             2               
    22 r.26                       -2         -1001               
    23 r.27                 -999.524      -999.524               
    24 r.28                     1000             2               
    25 r.29                    -1000         -1001               
    26 r.30                     2000      -998.642               
    27 r.31                     1001             2               
    28 r.32                    -1001         -1001               
    29 r.33                  2000.48      -968.167               
    30 r.34                     1001             2               
    31 r.35                    -1001         -1001               
    32 r.36                     2000      -972.261               
    33 r.37                 -970.009      -970.009               
    34 r.38                  30.4669      -983.029               
    35 r.39                  31.1653      -970.009               
    36 r.40                  1031.64      -983.029               
    37 r.41                        2             2               
    38 r.42                       -2         -1001               
    39 r.43                  999.524       29.9909               
    40 r.44                     1000             2               
    41 r.45                    -1000         -1001               
    42 r.46                     2000       16.9707               
    43 r.47                     1001             2               
    44 r.48                    -1001         -1001               
    45 r.49                     2000      -968.167               
    46 r.50                     1001             2               
    47 r.51                    -1001         -1001               
    48 r.52                     2000      -972.261               
    49 r.53                 -969.533      -999.524               
    50 r.54                  30.4669      -998.642               
    51 r.55                  31.6412      -999.524               
    52 r.56                  1031.64      -998.642               
    53 r.57                     1001             2               
    54 r.58                    -1001         -1001               
    55 r.59                  1999.52       29.9909               
    56 r.60                     1001             2               
    57 r.61                    -1001         -1001               
    58 r.62                     2000       16.9707               
    59 r.63                     1001             2               
    60 r.64                    -1001         -1001               
    61 r.65                     2000      0.475936               
    62 r.66                     1001             2               
    63 r.67                    -1001         -1001               
    64 r.68                     2000       1.35837               
    65 r.69                  30.4669      -968.167               
    66 r.70                 -969.533      -972.261               
    67 r.71                  1031.64      -968.167               
    68 r.72                  31.6412      -972.261               

   No. Column name       Activity     Lower bound   Upper bound
------ ------------    ------------- ------------- -------------
     1 tt                    31.8633             0               
     2 s_1_1        *              1             0             1 
     3 t_1_1                0.475936             0               
     4 s_2_1        *              0             0             1 
     5 t_2_1                       0             0               
     6 s_1_2        *              1             0             1 
     7 t_1_2                       0             0               
     8 s_2_2        *              0             0             1 
     9 t_2_2                       0             0               
    10 s_1_3        *              0             0             1 
    11 t_1_3                       0             0               
    12 s_2_3        *              1             0             1 
    13 t_2_3                       0             0               
    14 s_1_4        *              1             0             1 
    15 t_1_4                 30.4669             0               
    16 s_2_4        *              0             0             1 
    17 t_2_4                 1031.64             0               
    18 r_1_1_2      *              0             0             1 
    19 u_1_1_2      *              1             0             1 
    20 r_2_1_2      *              1             0             1 
    21 u_2_1_2      *              0             0             1 
    22 r_1_1_3      *              1             0             1 
    23 u_1_1_3      *              0             0             1 
    24 r_2_1_3      *              1             0             1 
    25 u_2_1_3      *              0             0             1 
    26 r_1_2_3      *              1             0             1 
    27 u_1_2_3      *              0             0             1 
    28 r_2_2_3      *              1             0             1 
    29 u_2_2_3      *              0             0             1 

Integer feasibility conditions:

KKT.PE: max.abs.err = 0.00e+00 on row 0
        max.rel.err = 0.00e+00 on row 0
        High quality

KKT.PB: max.abs.err = 1.14e-13 on row 14
        max.rel.err = 1.14e-16 on row 14
        High quality

End of output
